p cnf 120 394
1 2 3 0
4 5 6 0
7 8 9 0
10 11 12 0
13 14 15 0
16 17 18 0
19 20 21 0
22 23 24 0
25 26 27 0
28 29 30 0
31 32 33 0
34 35 36 0
37 38 39 0
40 41 42 0
43 44 45 0
46 47 48 0
49 50 51 0
52 53 54 0
55 56 57 0
58 59 60 0
61 62 63 0
64 65 66 0
67 68 69 0
70 71 72 0
73 74 75 0
76 77 78 0
79 80 81 0
82 83 84 0
85 86 87 0
88 89 90 0
91 92 93 0
94 95 96 0
97 98 99 0
100 101 102 0
103 104 105 0
106 107 108 0
109 110 111 0
112 113 114 0
115 116 117 0
118 119 120 0
-1 -2 0
-1 -3 0
-2 -3 0
-4 -5 0
-4 -6 0
-5 -6 0
-7 -8 0
-7 -9 0
-8 -9 0
-10 -11 0
-10 -12 0
-11 -12 0
-13 -14 0
-13 -15 0
-14 -15 0
-16 -17 0
-16 -18 0
-17 -18 0
-19 -20 0
-19 -21 0
-20 -21 0
-22 -23 0
-22 -24 0
-23 -24 0
-25 -26 0
-25 -27 0
-26 -27 0
-28 -29 0
-28 -30 0
-29 -30 0
-31 -32 0
-31 -33 0
-32 -33 0
-34 -35 0
-34 -36 0
-35 -36 0
-37 -38 0
-37 -39 0
-38 -39 0
-40 -41 0
-40 -42 0
-41 -42 0
-43 -44 0
-43 -45 0
-44 -45 0
-46 -47 0
-46 -48 0
-47 -48 0
-49 -50 0
-49 -51 0
-50 -51 0
-52 -53 0
-52 -54 0
-53 -54 0
-55 -56 0
-55 -57 0
-56 -57 0
-58 -59 0
-58 -60 0
-59 -60 0
-61 -62 0
-61 -63 0
-62 -63 0
-64 -65 0
-64 -66 0
-65 -66 0
-67 -68 0
-67 -69 0
-68 -69 0
-70 -71 0
-70 -72 0
-71 -72 0
-73 -74 0
-73 -75 0
-74 -75 0
-76 -77 0
-76 -78 0
-77 -78 0
-79 -80 0
-79 -81 0
-80 -81 0
-82 -83 0
-82 -84 0
-83 -84 0
-85 -86 0
-85 -87 0
-86 -87 0
-88 -89 0
-88 -90 0
-89 -90 0
-91 -92 0
-91 -93 0
-92 -93 0
-94 -95 0
-94 -96 0
-95 -96 0
-97 -98 0
-97 -99 0
-98 -99 0
-100 -101 0
-100 -102 0
-101 -102 0
-103 -104 0
-103 -105 0
-104 -105 0
-106 -107 0
-106 -108 0
-107 -108 0
-109 -110 0
-109 -111 0
-110 -111 0
-112 -113 0
-112 -114 0
-113 -114 0
-115 -116 0
-115 -117 0
-116 -117 0
-118 -119 0
-118 -120 0
-119 -120 0
-1 -73 0
-1 -79 0
-4 -46 0
-4 -106 0
-7 -85 0
-7 -94 0
-10 -22 0
-10 -97 0
-13 -67 0
-13 -97 0
-16 -19 0
-16 -88 0
-19 -16 0
-19 -34 0
-22 -10 0
-22 -40 0
-25 -85 0
-25 -100 0
-28 -49 0
-28 -73 0
-31 -52 0
-31 -106 0
-34 -19 0
-34 -79 0
-37 -43 0
-37 -58 0
-40 -22 0
-40 -46 0
-43 -37 0
-43 -52 0
-46 -4 0
-46 -40 0
-49 -28 0
-49 -76 0
-52 -31 0
-52 -43 0
-55 -64 0
-55 -82 0
-58 -37 0
-58 -115 0
-61 -64 0
-61 -94 0
-64 -55 0
-64 -61 0
-67 -13 0
-67 -118 0
-70 -76 0
-70 -91 0
-73 -1 0
-73 -28 0
-76 -49 0
-76 -70 0
-79 -1 0
-79 -34 0
-82 -55 0
-82 -103 0
-85 -7 0
-85 -25 0
-88 -16 0
-88 -115 0
-91 -70 0
-91 -112 0
-94 -7 0
-94 -61 0
-97 -10 0
-97 -13 0
-100 -25 0
-100 -118 0
-103 -82 0
-103 -112 0
-106 -4 0
-106 -31 0
-112 -91 0
-112 -103 0
-115 -58 0
-115 -88 0
-118 -67 0
-118 -100 0
-2 -74 0
-2 -80 0
-5 -47 0
-5 -107 0
-8 -86 0
-8 -95 0
-11 -23 0
-11 -98 0
-14 -68 0
-14 -98 0
-17 -20 0
-17 -89 0
-20 -17 0
-20 -35 0
-23 -11 0
-23 -41 0
-26 -86 0
-26 -101 0
-29 -50 0
-29 -74 0
-32 -53 0
-32 -107 0
-35 -20 0
-35 -80 0
-38 -44 0
-38 -59 0
-41 -23 0
-41 -47 0
-44 -38 0
-44 -53 0
-47 -5 0
-47 -41 0
-50 -29 0
-50 -77 0
-53 -32 0
-53 -44 0
-56 -65 0
-56 -83 0
-59 -38 0
-59 -116 0
-62 -65 0
-62 -95 0
-65 -56 0
-65 -62 0
-68 -14 0
-68 -119 0
-71 -77 0
-71 -92 0
-74 -2 0
-74 -29 0
-77 -50 0
-77 -71 0
-80 -2 0
-80 -35 0
-83 -56 0
-83 -104 0
-86 -8 0
-86 -26 0
-89 -17 0
-89 -116 0
-92 -71 0
-92 -113 0
-95 -8 0
-95 -62 0
-98 -11 0
-98 -14 0
-101 -26 0
-101 -119 0
-104 -83 0
-104 -113 0
-107 -5 0
-107 -32 0
-113 -92 0
-113 -104 0
-116 -59 0
-116 -89 0
-119 -68 0
-119 -101 0
-3 -75 0
-3 -81 0
-6 -48 0
-6 -108 0
-9 -87 0
-9 -96 0
-12 -24 0
-12 -99 0
-15 -69 0
-15 -99 0
-18 -21 0
-18 -90 0
-21 -18 0
-21 -36 0
-24 -12 0
-24 -42 0
-27 -87 0
-27 -102 0
-30 -51 0
-30 -75 0
-33 -54 0
-33 -108 0
-36 -21 0
-36 -81 0
-39 -45 0
-39 -60 0
-42 -24 0
-42 -48 0
-45 -39 0
-45 -54 0
-48 -6 0
-48 -42 0
-51 -30 0
-51 -78 0
-54 -33 0
-54 -45 0
-57 -66 0
-57 -84 0
-60 -39 0
-60 -117 0
-63 -66 0
-63 -96 0
-66 -57 0
-66 -63 0
-69 -15 0
-69 -120 0
-72 -78 0
-72 -93 0
-75 -3 0
-75 -30 0
-78 -51 0
-78 -72 0
-81 -3 0
-81 -36 0
-84 -57 0
-84 -105 0
-87 -9 0
-87 -27 0
-90 -18 0
-90 -117 0
-93 -72 0
-93 -114 0
-96 -9 0
-96 -63 0
-99 -12 0
-99 -15 0
-102 -27 0
-102 -120 0
-105 -84 0
-105 -114 0
-108 -6 0
-108 -33 0
-114 -93 0
-114 -105 0
-117 -60 0
-117 -90 0
-120 -69 0
-120 -102 0
